% demand
num_movements = 31;
loading_factor = [1050, 1850, 1800, 1800, 1650, 1500, 800, 1250, 1450, 1300, 1500, 1550, 1000, 2000, 1200, 1750, 850, 1550, 1300, 850, 1800, 1150, 1300, 900, 900, 900, 1850, 800, 1250, 1350, 1550];
pickup_time = [0, 0, 0, 1, 1, 1, 1, 1, 2, 2, 2, 4, 4, 5, 5, 6, 7, 7, 7, 7, 7, 8, 8, 8, 8, 8, 8, 9, 9, 9, 9];
delivery_time = [1, 1, 1, 2, 2, 3, 2, 6, 4, 3, 3, 7, 7, 6, 6, 7, 8, 8, 8, 8, 8, 9, 10, 9, 9, 9, 9, 10, 10, 10, 10];

% transporter definition
total_capacity = 7000;
num_decks = 3;
capacity = [3000, 1000, 3000];

% ways out of decks
num_ways_out = 1;
paths_out = array3d(decks, ways_out, decks, [
% ways out of deck d1
2, 3, 0, 

% ways out of deck d2
3, 0, 0, 

% ways out of deck d3
0, 0, 0,	

]);

